c This Formular is generated by mcnf
c
c    horn? no 
c    forced? no 
c    mixed sat? no 
c    clause length = 3 
c
p cnf 20  91 
 -14 -8 6 0
-17 -18 -13 0
-4 5 -1 0
-7 13 -1 0
14 1 -2 0
2 -20 -5 0
9 -15 -16 0
-19 -18 -15 0
-14 -2 -9 0
8 -9 16 0
-7 18 -2 0
10 -13 15 0
-17 -12 7 0
-7 -5 -4 0
12 -6 8 0
-9 -2 1 0
11 3 17 0
15 -5 -1 0
3 -4 -15 0
-6 -10 -20 0
-17 -6 16 0
%
0

10 52 19 20 39 99 14 56 37 97 87 88 99 85 13 60 56 41 50 18
